NAME 
ROWS
 N  OBJ
 L  R0      
 E  R1      
 E  R2      
 E  R3      
 E  R4      
 E  R5      
 E  R6      
 E  R7      
 E  R8      
 E  R9      
 E  R10     
 E  R11     
 E  R12     
 E  R13     
 E  R14     
 E  R15     
 E  R16     
 E  R17     
 E  R18     
 E  R19     
 E  R20     
 E  R21     
 E  R22     
 E  R23     
 E  R24     
 E  R25     
COLUMNS
    MARKER    'MARKER'                 'INTORG'
    I0(6)     OBJ       -113
    I0(6)     R0        117
    I0(6)     R4        3
    I0(6)     R8        6
    I0(6)     R9        1
    I0(6)     R10       5
    I0(6)     R25       1
    I1(8)     OBJ       -129
    I1(8)     R0        -131
    I1(8)     R2        14
    I1(8)     R3        19
    I1(8)     R6        -1
    I1(8)     R7        11
    I1(8)     R9        16
    I1(8)     R10       17
    I1(8)     R25       1
    I2(8)     OBJ       -8
    I2(8)     R0        4
    I2(8)     R3        16
    I2(8)     R4        19
    I2(8)     R5        9
    I2(8)     R6        9
    I2(8)     R8        15
    I2(8)     R11       7
    I2(8)     R25       1
    I3(7)     OBJ       51
    I3(7)     R0        -189
    I3(7)     R4        16
    I3(7)     R8        1
    I3(7)     R9        17
    I3(7)     R10       11
    I3(7)     R11       7
    I3(7)     R25       1
    I4(7)     OBJ       150
    I4(7)     R0        131
    I4(7)     R4        11
    I4(7)     R6        16
    I4(7)     R7        6
    I4(7)     R8        2
    I4(7)     R10       14
    I4(7)     R25       1
    I5(9)     OBJ       148
    I5(9)     R0        106
    I5(9)     R3        15
    I5(9)     R4        14
    I5(9)     R7        2
    I5(9)     R9        18
    I5(9)     R10       9
    I5(9)     R11       8
    I5(9)     R12       9
    I5(9)     R25       1
    I6(8)     OBJ       57
    I6(8)     R0        77
    I6(8)     R1        8
    I6(8)     R2        8
    I6(8)     R7        10
    I6(8)     R9        14
    I6(8)     R11       6
    I6(8)     R12       9
    I6(8)     R25       1
    I7(8)     OBJ       -72
    I7(8)     R0        82
    I7(8)     R3        -1
    I7(8)     R6        9
    I7(8)     R7        12
    I7(8)     R9        2
    I7(8)     R11       9
    I7(8)     R12       12
    I7(8)     R25       1
    I8(10)    OBJ       145
    I8(10)    R0        -100
    I8(10)    R1        9
    I8(10)    R3        11
    I8(10)    R6        4
    I8(10)    R8        5
    I8(10)    R9        11
    I8(10)    R10       12
    I8(10)    R11       12
    I8(10)    R12       6
    I8(10)    R25       1
    I9(10)    OBJ       -155
    I9(10)    R0        -193
    I9(10)    R1        9
    I9(10)    R2        3
    I9(10)    R4        11
    I9(10)    R6        16
    I9(10)    R8        13
    I9(10)    R9        6
    I9(10)    R10       18
    I9(10)    R12       8
    I9(10)    R25       1
    I10(7)    OBJ       -160
    I10(7)    R0        -56
    I10(7)    R2        7
    I10(7)    R6        16
    I10(7)    R8        18
    I10(7)    R10       15
    I10(7)    R11       8
    I10(7)    R25       1
    I11(9)    OBJ       161
    I11(9)    R0        44
    I11(9)    R1        18
    I11(9)    R3        14
    I11(9)    R5        12
    I11(9)    R7        9
    I11(9)    R9        10
    I11(9)    R10       3
    I11(9)    R12       3
    I11(9)    R25       1
    MARKER    'MARKER'                 'INTEND'
    C12(14)   OBJ       -6
    C12(14)   R0        1
    C12(14)   R1        14
    C12(14)   R3        7
    C12(14)   R4        17
    C12(14)   R6        12
    C12(14)   R9        12
    C12(14)   R10       9
    C12(14)   R12       14
    C12(14)   R13       9
    C12(14)   R16       19
    C12(14)   R17       -1
    C12(14)   R20       6
    C12(14)   R21       12
    C12(14)   R22       9
    C13(15)   OBJ       3
    C13(15)   R0        7
    C13(15)   R1        19
    C13(15)   R3        -1
    C13(15)   R7        19
    C13(15)   R8        17
    C13(15)   R9        13
    C13(15)   R10       12
    C13(15)   R11       19
    C13(15)   R15       -1
    C13(15)   R16       17
    C13(15)   R17       12
    C13(15)   R19       17
    C13(15)   R20       -1
    C13(15)   R22       19
    C13(15)   R23       11
    C14(13)   OBJ       5
    C14(13)   R0        -10
    C14(13)   R2        12
    C14(13)   R3        18
    C14(13)   R6        8
    C14(13)   R7        14
    C14(13)   R8        13
    C14(13)   R12       11
    C14(13)   R17       5
    C14(13)   R19       4
    C14(13)   R20       11
    C14(13)   R21       5
    C14(13)   R22       18
    C14(13)   R23       3
    C15(15)   R0        3
    C15(15)   R2        12
    C15(15)   R3        -1
    C15(15)   R4        14
    C15(15)   R6        10
    C15(15)   R7        4
    C15(15)   R8        2
    C15(15)   R10       3
    C15(15)   R11       2
    C15(15)   R14       10
    C15(15)   R15       1
    C15(15)   R17       6
    C15(15)   R20       13
    C15(15)   R22       12
    C15(15)   R24       17
    C16(15)   OBJ       -1
    C16(15)   R0        8
    C16(15)   R1        16
    C16(15)   R3        19
    C16(15)   R5        5
    C16(15)   R7        15
    C16(15)   R8        -1
    C16(15)   R10       6
    C16(15)   R11       18
    C16(15)   R12       1
    C16(15)   R14       1
    C16(15)   R17       4
    C16(15)   R18       15
    C16(15)   R19       19
    C16(15)   R21       14
    C16(15)   R23       -1
    C17(8)    OBJ       -6
    C17(8)    R0        -9
    C17(8)    R2        17
    C17(8)    R4        8
    C17(8)    R12       3
    C17(8)    R15       13
    C17(8)    R16       11
    C17(8)    R19       15
    C17(8)    R24       11
    C18(15)   OBJ       8
    C18(15)   R0        1
    C18(15)   R2        -1
    C18(15)   R3        2
    C18(15)   R8        16
    C18(15)   R9        6
    C18(15)   R11       15
    C18(15)   R12       15
    C18(15)   R14       12
    C18(15)   R15       18
    C18(15)   R16       9
    C18(15)   R18       16
    C18(15)   R19       17
    C18(15)   R20       3
    C18(15)   R22       1
    C18(15)   R23       5
    C19(12)   OBJ       -1
    C19(12)   R0        4
    C19(12)   R1        15
    C19(12)   R3        10
    C19(12)   R4        16
    C19(12)   R6        15
    C19(12)   R7        5
    C19(12)   R10       9
    C19(12)   R12       10
    C19(12)   R16       2
    C19(12)   R17       16
    C19(12)   R20       19
    C19(12)   R22       -1
    C20(13)   OBJ       8
    C20(13)   R0        5
    C20(13)   R2        13
    C20(13)   R4        13
    C20(13)   R5        7
    C20(13)   R9        8
    C20(13)   R10       1
    C20(13)   R14       13
    C20(13)   R15       2
    C20(13)   R17       19
    C20(13)   R20       2
    C20(13)   R22       5
    C20(13)   R23       7
    C20(13)   R24       7
    C21(14)   OBJ       3
    C21(14)   R0        5
    C21(14)   R2        19
    C21(14)   R6        7
    C21(14)   R7        8
    C21(14)   R9        18
    C21(14)   R10       -1
    C21(14)   R11       16
    C21(14)   R12       1
    C21(14)   R13       10
    C21(14)   R17       17
    C21(14)   R18       19
    C21(14)   R21       12
    C21(14)   R22       1
    C21(14)   R24       4
    C22(13)   OBJ       8
    C22(13)   R0        7
    C22(13)   R2        16
    C22(13)   R6        11
    C22(13)   R7        9
    C22(13)   R8        14
    C22(13)   R9        12
    C22(13)   R12       3
    C22(13)   R15       14
    C22(13)   R16       1
    C22(13)   R19       3
    C22(13)   R21       10
    C22(13)   R22       17
    C22(13)   R23       16
    C23(17)   R0        -5
    C23(17)   R1        12
    C23(17)   R3        1
    C23(17)   R4        19
    C23(17)   R5        18
    C23(17)   R6        4
    C23(17)   R7        7
    C23(17)   R8        8
    C23(17)   R10       9
    C23(17)   R11       13
    C23(17)   R12       3
    C23(17)   R14       17
    C23(17)   R15       15
    C23(17)   R16       18
    C23(17)   R18       16
    C23(17)   R21       15
    C23(17)   R22       18
    C24(14)   OBJ       4
    C24(14)   R0        1
    C24(14)   R3        3
    C24(14)   R4        1
    C24(14)   R10       17
    C24(14)   R11       11
    C24(14)   R15       7
    C24(14)   R17       17
    C24(14)   R18       2
    C24(14)   R19       5
    C24(14)   R20       -1
    C24(14)   R21       4
    C24(14)   R22       7
    C24(14)   R23       8
    C24(14)   R24       -1
    C25(1)    R1        1
    C26(1)    R2        1
    C27(1)    R3        1
    C28(1)    R4        1
    C29(1)    R5        1
    C30(1)    R6        1
    C31(1)    R7        1
    C32(1)    R8        1
    C33(1)    R9        1
    C34(1)    R10       1
    C35(1)    R11       1
    C36(1)    R12       1
    C37(1)    R13       1
    C38(1)    R14       1
    C39(1)    R15       1
    C40(1)    R16       1
    C41(1)    R17       1
    C42(1)    R18       1
    C43(1)    R19       1
    C44(1)    R20       1
    C45(1)    R21       1
    C46(1)    R22       1
    C47(1)    R23       1
    C48(1)    R24       1
    C49(1)    R25       1
RHS
    RHS1      R0        -2.8306535947712416e+02
    RHS1      R1        74
    RHS1      R2        64
    RHS1      R3        74
    RHS1      R4        92
    RHS1      R5        80
    RHS1      R6        60
    RHS1      R7        74
    RHS1      R8        99
    RHS1      R9        64
    RHS1      R10       65
    RHS1      R11       93
    RHS1      R12       93
    RHS1      R13       92
    RHS1      R14       92
    RHS1      R15       89
    RHS1      R16       70
    RHS1      R17       71
    RHS1      R18       96
    RHS1      R19       50
    RHS1      R20       65
    RHS1      R21       53
    RHS1      R22       61
    RHS1      R23       76
    RHS1      R24       94
    RHS1      R25       4
BOUNDS
 UP BND1      I0(6)     1
 UP BND1      I1(8)     1
 UP BND1      I2(8)     1
 UP BND1      I3(7)     1
 UP BND1      I4(7)     1
 UP BND1      I5(9)     1
 UP BND1      I6(8)     1
 UP BND1      I7(8)     1
 UP BND1      I8(10)    1
 UP BND1      I9(10)    1
 UP BND1      I10(7)    1
 UP BND1      I11(9)    1
ENDATA
